# inputfile for mdlammps.py

units lj
atom_style full
timestep 0.05

read_data  morse.init

pair_style 	lj/cut 3
pair_coeff 1 1 1 1  # W W   
pair_coeff 1 2 1 1  # W C 
pair_coeff 2 2 1 1  # C C#

bond_style morse
bond_coeff 1 1.5 0.75 1.5 # D alpha r0

dump traj all xyz 10 morse.xyz
#dump traj all atom 10 ho.lammpstrj
#dump vel all custum id vx vy vz

thermo_style custom elapsed temp etotal ke pe evdwl ebond

thermo 10
log morse.log

#inm morse.eig.dat 10

fix vvnve all nvt temp 10 10 1

run 100000
